; Property from "Case-Analysis for Rippling and Inductive Proof",
; Moa Johansson, Lucas Dixon and Alan Bundy, ITP 2010
(declare-datatypes () ((Nat (Z) (S (p Nat)))))
(define-fun-rec
  plus
    ((x Nat) (y Nat)) Nat
    (match x
      (case Z y)
      (case (S z) (S (plus z y)))))
(define-fun-rec
  minus
    ((x Nat) (y Nat)) Nat
    (match x
      (case Z Z)
      (case (S z)
        (match y
          (case Z x)
          (case (S x2) (minus z x2))))))
(assert-not (forall ((n Nat) (m Nat)) (= (minus n (plus n m)) Z)))
(check-sat)
